p cnf 234 423
e 1 2 3 4 5 6 7 8 9 10 11 12 13 14 15 16 17 18 19 20 21 22 23 24 25 26 27 28 29 30 31 32 33 34 35 36 37 38 39 40 41 42 43 44 45 46 47 48 49 50 51 52 53 54 55 56 57 58 59 60 61 62 63 64 65 66 67 68 69 70 71 72 73 74 75 76 77 78 79 80 81 82 83 84 85 86 87 88 89 90 91 92 93 94 95 96 97 98 99 100 101 102 103 104 105 106 107 108 109 110 111 112 113 114 115 116 117 118 119 120 121 122 123 124 125 126 127 128 129 130 131 132 133 134 135 136 137 138 139 140 141 142 143 144 145 146 147 148 149 150 151 152 153 154 155 156 157 158 159 160 161 162 163 164 165 166 167 168 169 170 171 172 173 174 175 176 177 178 179 180 181 182 183 184 185 186 187 188 189 190 191 192 193 194 195 196 197 198 199 200 201 202 203 204 205 206 207 208 209 210 211 212 213 214 215 216 217 218 219 220 221 222 223 224 225 226 227 228 229 230 231 232 233 234 0
-133 0
-48 0
-52 0
-94 0
-47 0
-21 0
-37 0
-27 0
-30 0
-193 0
-25 0
-33 0
154 0
-43 0
-51 0
-197 0
-20 0
-50 0
-22 0
160 0
-18 0
-28 0
-61 0
-124 0
143 0
-11 0
-4 0
-8 0
-7 0
-191 0
-234 0
-23 0
-44 0
-46 0
-118 0
163 0
-17 0
-56 0
-9 0
-55 0
-34 0
-115 0
-130 0
-139 0
-59 0
-16 0
-31 0
148 0
-189 0
-164 0
-32 0
145 0
-42 0
-45 0
-195 0
1 0
-26 0
-36 0
156 0
-202 0
-24 0
-58 0
147 0
-186 0
155 0
-203 0
-200 0
-192 0
-38 0
-106 0
-136 0
-15 0
-204 0
-2 0
-35 0
144 0
158 0
-5 0
-6 0
-19 0
152 0
157 0
-190 0
-39 0
-85 0
-91 0
-12 0
-100 0
-29 0
-49 0
-199 0
159 0
-57 0
-127 0
146 0
150 0
-196 0
-3 0
-10 0
-88 0
-121 0
-198 0
-187 0
-53 0
-97 0
-112 0
-194 0
-188 0
-14 0
-40 0
-109 0
151 0
-103 0
-142 0
-185 0
149 0
161 0
162 0
-13 0
-54 0
-60 0
-205 0
-201 0
206 0
-41 0
153 0
-83 84 0
83 -84 0
-86 87 0
86 -87 0
-89 90 0
89 -90 0
-92 93 0
92 -93 0
-95 96 0
95 -96 0
-98 99 0
98 -99 0
-101 102 0
101 -102 0
-104 105 0
104 -105 0
-107 108 0
107 -108 0
-110 111 0
110 -111 0
-113 114 0
113 -114 0
-116 117 0
116 -117 0
-119 120 0
119 -120 0
-122 123 0
122 -123 0
-125 126 0
125 -126 0
-128 129 0
128 -129 0
-131 132 0
131 -132 0
-134 135 0
134 -135 0
-137 138 0
137 -138 0
-140 141 0
140 -141 0
62 -84 0
62 -87 0
62 -90 0
62 -93 0
62 -96 0
62 -99 0
62 -102 0
62 -105 0
62 -108 0
62 -111 0
62 -114 0
62 -117 0
62 -120 0
62 -123 0
62 -126 0
62 -129 0
62 -132 0
62 -135 0
62 -138 0
62 -141 0
63 -84 0
64 -87 0
65 -90 0
66 -93 0
67 -96 0
68 -99 0
69 -102 0
70 -105 0
71 -108 0
72 -111 0
73 -114 0
74 -117 0
75 -120 0
76 -123 0
77 -126 0
78 -129 0
79 -132 0
80 -135 0
81 -138 0
82 -141 0
207 -84 -87 0
-207 84 0
-207 87 0
208 -96 -99 -102 0
-208 96 0
-208 99 0
-208 102 0
209 -111 -114 -117 0
-209 111 0
-209 114 0
-209 117 0
210 -120 -123 -126 0
-210 120 0
-210 123 0
-210 126 0
211 -129 -132 -135 0
-211 129 0
-211 132 0
-211 135 0
212 -138 -141 0
-212 138 0
-212 141 0
213 -90 -96 0
-213 90 0
-213 96 0
214 -120 -129 -138 0
-214 120 0
-214 129 0
-214 138 0
215 -84 -93 -99 0
-215 84 0
-215 93 0
-215 99 0
216 -123 -132 -141 0
-216 123 0
-216 132 0
-216 141 0
217 -126 -135 0
-217 126 0
-217 135 0
218 -93 -102 0
-218 93 0
-218 102 0
219 -120 -132 0
-219 120 0
-219 132 0
220 -87 -93 -96 0
-220 87 0
-220 93 0
-220 96 0
221 -126 -132 -111 0
-221 126 0
-221 132 0
-221 111 0
222 -84 -105 -123 0
-222 84 0
-222 105 0
-222 123 0
223 -87 -126 0
-223 87 0
-223 126 0
224 -90 -108 -129 0
-224 90 0
-224 108 0
-224 129 0
225 -96 -111 -138 0
-225 96 0
-225 111 0
-225 138 0
226 -99 -114 -141 0
-226 99 0
-226 114 0
-226 141 0
227 -102 -117 0
-227 102 0
-227 117 0
228 -108 -138 0
-228 108 0
-228 138 0
229 -96 -108 -120 0
-229 96 0
-229 108 0
-229 120 0
230 -105 -126 0
-230 105 0
-230 126 0
231 -96 -114 0
-231 96 0
-231 114 0
232 -87 -105 -120 0
-232 87 0
-232 105 0
-232 120 0
233 -102 -114 -138 0
-233 102 0
-233 114 0
-233 138 0
207 208 209 210 211 212 213 214 215 216 217 218 219 220 221 222 223 224 225 226 227 228 229 230 231 232 233 0
-63 165 0
63 -165 0
-64 166 0
-165 166 0
64 -166 165 0
-64 -165 0
-65 167 0
-166 167 0
65 -167 166 0
-65 -166 0
-66 168 0
-167 168 0
66 -168 167 0
-66 -167 0
-67 169 0
-168 169 0
67 -169 168 0
-67 -168 0
-68 170 0
-169 170 0
68 -170 169 0
-68 -169 0
-69 171 0
-170 171 0
69 -171 170 0
-69 -170 0
-70 172 0
-171 172 0
70 -172 171 0
-70 -171 0
-71 173 0
-172 173 0
71 -173 172 0
-71 -172 0
-72 174 0
-173 174 0
72 -174 173 0
-72 -173 0
-73 175 0
-174 175 0
73 -175 174 0
-73 -174 0
-74 176 0
-175 176 0
74 -176 175 0
-74 -175 0
-75 177 0
-176 177 0
75 -177 176 0
-75 -176 0
-76 178 0
-177 178 0
76 -178 177 0
-76 -177 0
-77 179 0
-178 179 0
77 -179 178 0
-77 -178 0
-78 180 0
-179 180 0
78 -180 179 0
-78 -179 0
-79 181 0
-180 181 0
79 -181 180 0
-79 -180 0
-80 182 0
-181 182 0
80 -182 181 0
-80 -181 0
-81 183 0
-182 183 0
81 -183 182 0
-81 -182 0
-82 184 0
-183 184 0
82 -184 183 0
-82 -183 0
-62 184 0
-63 84 0
-63 62 0
-64 87 0
-64 62 0
-65 90 0
-65 62 0
-66 93 0
-66 62 0
-67 96 0
-67 62 0
-68 99 0
-68 62 0
-69 102 0
-69 62 0
-70 105 0
-70 62 0
-71 108 0
-71 62 0
-72 111 0
-72 62 0
-73 114 0
-73 62 0
-74 117 0
-74 62 0
-75 120 0
-75 62 0
-76 123 0
-76 62 0
-77 126 0
-77 62 0
-78 129 0
-78 62 0
-79 132 0
-79 62 0
-80 135 0
-80 62 0
-81 138 0
-81 62 0
-82 141 0
-82 62 0
